10	5
0	4	2	6	5	1
1	0
2	2	9	4
3	1	10
4	1	3
5	2	7	9
6	1	8
7	0
8	1	4
9	1	11
10	1	11
11	0
0	0	0	0	0	0	0
1	8	2	3	4	2	1
2	5	2	2	3	2	4
3	2	1	2	2	4	3
4	10	4	1	1	2	4
5	2	3	4	1	3	2
6	3	2	5	4	2	5
7	8	3	3	3	5	2
8	4	2	5	4	1	1
9	7	2	1	3	2	3
10	7	4	1	4	4	1
11	0	0	0	0	0	0
4	5	5	5	5
